networks/zoo_183_6703/zoo_183_6703-lower.txt
Number of groups: 87
Flow 1: {1 33 0} {33 2 0} {2 94 0} 
Flow 2: {1 42 0} {42 10 0} {3 95 0} 
Flow 3: {12 8 0} {8 7 0} {7 6 0} {6 5 0} {5 4 0} {4 96 0} 
Flow 3: {10 9 0} {9 12 0} Flow 4: {5 97 0} 
Flow 5: {6 98 0} 
Flow 6: {7 99 0} 
Flow 7: {9 101 0} 
Flow 8: {10 102 0} 
Flow 9: {12 104 0} 
Flow 10: {66 13 0} {13 105 0} 
Flow 11: {2 34 0} {78 14 0} {14 106 0} 
Flow 11: {40 39 0} {39 91 0} {91 90 0} {86 46 0} {46 51 0} {51 78 0} {90 89 0} {89 88 0} {88 64 0} {64 87 0} {87 85 0} {85 86 0} Flow 12: {12 11 0} {11 63 0} {63 66 0} {13 65 0} {65 17 0} {72 71 0} {71 15 0} {15 107 0} 
Flow 12: {17 68 0} {68 67 0} {67 70 0} {70 69 0} {69 72 0} Flow 13: {4 3 0} {26 16 0} {16 108 0} 
Flow 13: {25 26 0} Flow 14: {17 109 0} 
Flow 15: {3 79 0} {79 47 0} {62 18 0} {18 110 0} 
Flow 15: {59 62 0} Flow 16: {34 19 0} {19 31 0} {31 32 0} {32 20 0} {20 112 0} 
Flow 17: {24 116 0} 
Flow 17: {34 35 0} {35 56 0} {56 37 0} Flow 18: {48 28 0} {28 25 0} {25 117 0} 
Flow 18: {80 27 0} {27 48 0} {47 41 0} {41 80 0} Flow 19: {26 118 0} 
Flow 20: {27 119 0} 
Flow 21: {28 120 0} 
Flow 22: {29 121 0} 
Flow 23: {25 29 0} {29 52 0} {52 30 0} {30 122 0} 
Flow 24: {31 123 0} 
Flow 25: {32 124 0} 
Flow 26: {34 126 0} 
Flow 27: {35 127 0} 
Flow 28: {83 36 0} {36 128 0} 
Flow 28: {37 83 0} Flow 29: {37 129 0} 
Flow 30: {37 92 0} {92 38 0} {38 130 0} 
Flow 31: {38 40 0} {39 131 0} 
Flow 32: {40 132 0} 
Flow 33: {41 133 0} 
Flow 34: {42 134 0} 
Flow 35: {82 50 0} {50 43 0} {43 135 0} 
Flow 35: {48 49 0} {49 81 0} {81 82 0} Flow 36: {77 45 0} {45 137 0} 
Flow 36: {46 77 0} Flow 37: {46 138 0} 
Flow 38: {48 140 0} 
Flow 39: {49 141 0} 
Flow 40: {50 142 0} 
Flow 41: {51 143 0} 
Flow 42: {52 144 0} 
Flow 43: {15 53 0} {53 54 0} {54 146 0} 
Flow 44: {47 74 0} {74 73 0} {73 55 0} {55 147 0} 
Flow 45: {56 148 0} 
Flow 46: {55 58 0} {58 57 0} {57 149 0} 
Flow 47: {58 150 0} 
Flow 48: {57 60 0} {60 59 0} {59 151 0} 
Flow 49: {60 152 0} 
Flow 50: {54 61 0} {61 153 0} 
Flow 51: {62 154 0} 
Flow 52: {63 155 0} 
Flow 53: {64 156 0} 
Flow 54: {65 157 0} 
Flow 55: {66 158 0} 
Flow 56: {67 159 0} 
Flow 57: {68 160 0} 
Flow 58: {70 162 0} 
Flow 59: {71 163 0} 
Flow 60: {72 164 0} 
Flow 61: {73 165 0} 
Flow 62: {45 76 0} {76 75 0} {75 167 0} 
Flow 63: {76 168 0} 
Flow 64: {77 169 0} 
Flow 65: {78 170 0} 
Flow 66: {81 173 0} 
Flow 67: {82 174 0} 
Flow 68: {83 175 0} 
Flow 69: {36 84 0} {84 176 0} 
Flow 70: {85 177 0} 
Flow 71: {86 178 0} 
Flow 72: {89 181 0} 
Flow 73: {90 182 0} 
Flow 74: {91 183 0} 
Flow 75: {33 1 0} {1 93 0} 
Flow 75: {2 33 0} Flow 81: {8 100 0} 
Flow 88: {84 23 0} {23 24 0} Flow 90: {24 21 0} {21 22 0} {22 47 0} Flow 91: {19 111 0} 
Flow 93: {22 114 0} 
Flow 94: {23 115 0} 
Flow 140: {74 166 0} 
Flow 145: {80 172 0} 
Flow 155: {9 10 0} {10 42 0} {42 1 0} Flow 156: {3 4 0} {4 5 0} {5 6 0} {6 7 0} {7 8 0} {8 12 0} {12 9 0} Flow 164: {11 103 0} 
Flow 167: {30 14 0} Flow 168: {18 61 0} {61 54 0} {54 53 0} {53 15 0} Flow 175: {47 22 0} Flow 176: {22 21 0} {21 24 0} Flow 185: {33 125 0} 
Flow 187: {24 23 0} Flow 188: {23 84 0} {84 36 0} Flow 189: {36 83 0} {83 37 0} Flow 196: {43 44 0} {44 75 0} {75 76 0} {76 45 0} Flow 197: {14 78 0} {78 51 0} {51 46 0} Flow 205: {37 56 0} Flow 218: {69 161 0} 
Flow 220: {15 71 0} Flow 233: {46 86 0} {86 85 0} Flow 264: {56 35 0} Flow 776: {11 12 0} Flow 791: {61 18 0} Flow 938: {13 66 0} Flow 939: {66 63 0} {63 11 0} Flow 960: {18 62 0} Flow 976: {14 30 0} {30 52 0} {52 29 0} {29 25 0} Flow 977: {34 2 0} {91 39 0} {39 40 0} {87 64 0} {64 88 0} {88 89 0} {89 90 0} {90 91 0} {85 87 0} Flow 978: {25 28 0} {28 48 0} {48 27 0} {27 80 0} {80 41 0} {41 47 0} {47 79 0} {79 3 0} Flow 989: {52 16 0} Flow 992: {35 34 0} {40 38 0} {38 92 0} {92 37 0} Flow 998: {16 26 0} Flow 1014: {75 44 0} {44 43 0} Flow 1037: {72 69 0} {69 70 0} {71 72 0} Flow 1056: {68 17 0} {17 65 0} {65 13 0} {70 67 0} {67 68 0} Flow 1058: {62 59 0} {59 60 0} Flow 1059: {58 55 0} {55 73 0} {73 74 0} {74 47 0} {60 57 0} {57 58 0} Flow 1136: {26 25 0} Flow 1148: {16 52 0} Flow 1296: {87 179 0} 
Flow 1383: {19 34 0} Flow 1462: {20 32 0} {32 31 0} {31 19 0} Flow 2479: {47 139 0} 
Flow 2485: {53 145 0} 
Flow 2835: {43 50 0} Flow 2860: {50 82 0} {82 81 0} Flow 3104: {81 49 0} {49 48 0} Flow 3116: {45 77 0} {77 46 0} Time taken running everything: 0 seconds
