networks/zoo_183_6703/zoo_183_6703-lower.sol
<?xml version = "1.0" encoding="UTF-8" standalone="yes"?>
<CPLEXSolution version="1.2">
 <header
   problemName="networks/zoo_183_6703/zoo_183_6703-lower.lp"
   solutionName="incumbent"
   solutionIndex="-1"
   objectiveValue="87"
   solutionTypeValue="3"
   solutionTypeString="primal"
   solutionStatusValue="101"
   solutionStatusString="integer optimal solution"
   solutionMethodString="mip"
   primalFeasible="1"
   dualFeasible="1"
   MIPNodes="0"
   MIPIterations="14"
   writeLevel="3"/>
 <quality
   epInt="1.0000000000000001e-05"
   epRHS="9.9999999999999995e-07"
   maxIntInfeas="0"
   maxPrimalInfeas="0"
   maxX="1"
   maxSlack="1"/>
 <variables>
  <variable name="Y(108,38)" index="19190" value="1"/>
  <variable name="Y(157,4)" index="27927" value="1"/>
  <variable name="Y(164,11)" index="29187" value="1"/>
  <variable name="Y(241,5)" index="42964" value="1"/>
  <variable name="Y(311,91)" index="55580" value="1"/>
  <variable name="Y(316,6)" index="56390" value="1"/>
  <variable name="Y(464,8)" index="82884" value="1"/>
  <variable name="Y(543,7)" index="97024" value="1"/>
  <variable name="Y(832,63)" index="148811" value="1"/>
  <variable name="Y(1045,78)" index="186953" value="1"/>
  <variable name="Y(1076,24)" index="192448" value="1"/>
  <variable name="Y(1181,52)" index="211271" value="1"/>
  <variable name="Y(1262,51)" index="225769" value="1"/>
  <variable name="Y(1275,65)" index="228110" value="1"/>
  <variable name="Y(1296,87)" index="231891" value="1"/>
  <variable name="Y(1400,20)" index="250440" value="1"/>
  <variable name="Y(1477,32)" index="264235" value="1"/>
  <variable name="Y(1478,34)" index="264416" value="1"/>
  <variable name="Y(1536,22)" index="274786" value="1"/>
  <variable name="Y(1851,29)" index="331178" value="1"/>
  <variable name="Y(1947,48)" index="348381" value="1"/>
  <variable name="Y(1980,83)" index="354323" value="1"/>
  <variable name="Y(2166,26)" index="387560" value="1"/>
  <variable name="Y(2339,70)" index="418571" value="1"/>
  <variable name="Y(2354,2)" index="421188" value="1"/>
  <variable name="Y(2421,74)" index="433253" value="1"/>
  <variable name="Y(2464,30)" index="440906" value="1"/>
  <variable name="Y(2467,33)" index="441446" value="1"/>
  <variable name="Y(2479,47)" index="443608" value="1"/>
  <variable name="Y(2485,53)" index="444688" value="1"/>
  <variable name="Y(2539,19)" index="454320" value="1"/>
  <variable name="Y(2753,40)" index="492647" value="1"/>
  <variable name="Y(3020,80)" index="540480" value="1"/>
  <variable name="Y(3030,1)" index="542191" value="1"/>
  <variable name="Y(3264,3)" index="584079" value="1"/>
  <variable name="Y(3321,67)" index="594346" value="1"/>
  <variable name="Y(3381,45)" index="605064" value="1"/>
  <variable name="Y(3459,41)" index="619022" value="1"/>
  <variable name="Y(3571,81)" index="639110" value="1"/>
  <variable name="Y(3652,82)" index="653610" value="1"/>
  <variable name="Y(3690,39)" index="660369" value="1"/>
  <variable name="Y(3784,60)" index="677216" value="1"/>
  <variable name="Y(3856,57)" index="690101" value="1"/>
  <variable name="Y(4032,42)" index="721590" value="1"/>
  <variable name="Y(4043,58)" index="723575" value="1"/>
  <variable name="Y(4282,62)" index="766360" value="1"/>
  <variable name="Y(4321,13)" index="773292" value="1"/>
  <variable name="Y(4362,59)" index="780677" value="1"/>
  <variable name="Y(4482,18)" index="802116" value="1"/>
  <variable name="Y(4512,56)" index="807524" value="1"/>
  <variable name="Y(4599,66)" index="823107" value="1"/>
  <variable name="Y(4707,12)" index="842385" value="1"/>
  <variable name="Y(4754,68)" index="850854" value="1"/>
  <variable name="Y(4789,17)" index="857068" value="1"/>
  <variable name="Y(4919,69)" index="880390" value="1"/>
  <variable name="Y(4948,10)" index="885522" value="1"/>
  <variable name="Y(4995,61)" index="893986" value="1"/>
  <variable name="Y(5036,15)" index="901279" value="1"/>
  <variable name="Y(5182,35)" index="927433" value="1"/>
  <variable name="Y(5284,71)" index="945727" value="1"/>
  <variable name="Y(5321,55)" index="952334" value="1"/>
  <variable name="Y(5400,73)" index="966493" value="1"/>
  <variable name="Y(5432,25)" index="972173" value="1"/>
  <variable name="Y(5476,76)" index="980100" value="1"/>
  <variable name="Y(5537,54)" index="990997" value="1"/>
  <variable name="Y(5671,23)" index="1014952" value="1"/>
  <variable name="Y(5749,46)" index="1028937" value="1"/>
  <variable name="Y(5770,85)" index="1032735" value="1"/>
  <variable name="Y(5803,36)" index="1038593" value="1"/>
  <variable name="Y(5815,50)" index="1040755" value="1"/>
  <variable name="Y(5840,77)" index="1045257" value="1"/>
  <variable name="Y(5891,43)" index="1054352" value="1"/>
  <variable name="Y(6026,16)" index="1078490" value="1"/>
  <variable name="Y(6066,64)" index="1085698" value="1"/>
  <variable name="Y(6354,49)" index="1137235" value="1"/>
  <variable name="Y(6391,89)" index="1143898" value="1"/>
  <variable name="Y(6418,31)" index="1148673" value="1"/>
  <variable name="Y(6464,86)" index="1156962" value="1"/>
  <variable name="Y(6474,9)" index="1158675" value="1"/>
  <variable name="Y(6478,14)" index="1159396" value="1"/>
  <variable name="Y(6488,28)" index="1161200" value="1"/>
  <variable name="Y(6615,84)" index="1183989" value="1"/>
  <variable name="Y(6619,90)" index="1184711" value="1"/>
  <variable name="Y(6645,27)" index="1189302" value="1"/>
  <variable name="Y(6655,37)" index="1191102" value="1"/>
  <variable name="Y(6687,72)" index="1196865" value="1"/>
  <variable name="Y(6690,75)" index="1197405" value="1"/>
  <variable name="X(1,33,5182)" index="1205018" value="1"/>
  <variable name="X(1,42,6474)" index="1213013" value="1"/>
  <variable name="X(1,93,3030)" index="1216272" value="1"/>
  <variable name="X(2,33,6474)" index="1226419" value="1"/>
  <variable name="X(2,34,5182)" index="1231830" value="1"/>
  <variable name="X(2,94,2354)" index="1235705" value="1"/>
  <variable name="X(3,4,157)" index="1240211" value="1"/>
  <variable name="X(3,79,2421)" index="1249178" value="1"/>
  <variable name="X(3,95,3264)" index="1256724" value="1"/>
  <variable name="X(4,3,2421)" index="1262584" value="1"/>
  <variable name="X(4,5,241)" index="1267107" value="1"/>
  <variable name="X(4,96,157)" index="1273726" value="1"/>
  <variable name="X(5,4,2421)" index="1282693" value="1"/>
  <variable name="X(5,6,316)" index="1287291" value="1"/>
  <variable name="X(5,97,241)" index="1293919" value="1"/>
  <variable name="X(6,5,2421)" index="1302802" value="1"/>
  <variable name="X(6,7,3321)" index="1310405" value="1"/>
  <variable name="X(6,98,316)" index="1314103" value="1"/>
  <variable name="X(7,6,2421)" index="1322911" value="1"/>
  <variable name="X(7,8,3321)" index="1330514" value="1"/>
  <variable name="X(7,99,543)" index="1334439" value="1"/>
  <variable name="X(8,7,2421)" index="1343020" value="1"/>
  <variable name="X(8,12,3321)" index="1350623" value="1"/>
  <variable name="X(8,100,464)" index="1354469" value="1"/>
  <variable name="X(9,10,4948)" index="1365656" value="1"/>
  <variable name="X(9,12,2421)" index="1369832" value="1"/>
  <variable name="X(9,101,6474)" index="1380588" value="1"/>
  <variable name="X(10,9,6474)" index="1387291" value="1"/>
  <variable name="X(10,42,4032)" index="1391552" value="1"/>
  <variable name="X(10,102,4948)" index="1399171" value="1"/>
  <variable name="X(11,12,4707)" index="1405633" value="1"/>
  <variable name="X(11,63,3321)" index="1410950" value="1"/>
  <variable name="X(11,103,164)" index="1414496" value="1"/>
  <variable name="X(12,8,2421)" index="1423456" value="1"/>
  <variable name="X(12,9,4948)" index="1432686" value="1"/>
  <variable name="X(12,11,3321)" index="1437762" value="1"/>
  <variable name="X(12,104,4707)" index="1445851" value="1"/>
  <variable name="X(13,65,3321)" index="1451168" value="1"/>
  <variable name="X(13,66,4707)" index="1459257" value="1"/>
  <variable name="X(13,105,4321)" index="1465574" value="1"/>
  <variable name="X(14,30,6488)" index="1474444" value="1"/>
  <variable name="X(14,78,1262)" index="1475921" value="1"/>
  <variable name="X(14,106,6478)" index="1487840" value="1"/>
  <variable name="X(15,53,4995)" index="1493060" value="1"/>
  <variable name="X(15,71,4321)" index="1499089" value="1"/>
  <variable name="X(15,107,5036)" index="1506507" value="1"/>
  <variable name="X(16,26,2166)" index="1510340" value="1"/>
  <variable name="X(16,52,1181)" index="1516058" value="1"/>
  <variable name="X(16,108,6026)" index="1527606" value="1"/>
  <variable name="X(17,65,4321)" index="1532604" value="1"/>
  <variable name="X(17,68,3321)" index="1538307" value="1"/>
  <variable name="X(17,109,4789)" index="1546478" value="1"/>
  <variable name="X(18,61,5537)" index="1553929" value="1"/>
  <variable name="X(18,62,1076)" index="1556171" value="1"/>
  <variable name="X(18,110,4482)" index="1566280" value="1"/>
  <variable name="X(19,31,6418)" index="1574919" value="1"/>
  <variable name="X(19,34,1478)" index="1576682" value="1"/>
  <variable name="X(19,111,2539)" index="1584446" value="1"/>
  <variable name="X(20,32,1477)" index="1590087" value="1"/>
  <variable name="X(20,112,1400)" index="1596713" value="1"/>
  <variable name="X(21,22,6645)" index="1608661" value="1"/>
  <variable name="X(21,24,1076)" index="1609795" value="1"/>
  <variable name="X(22,21,1076)" index="1616498" value="1"/>
  <variable name="X(22,47,6645)" index="1628770" value="1"/>
  <variable name="X(22,114,1536)" index="1630364" value="1"/>
  <variable name="X(23,24,6645)" index="1642176" value="1"/>
  <variable name="X(23,84,5803)" index="1648037" value="1"/>
  <variable name="X(23,115,5671)" index="1654608" value="1"/>
  <variable name="X(24,21,6645)" index="1662285" value="1"/>
  <variable name="X(24,23,5671)" index="1668014" value="1"/>
  <variable name="X(24,116,1076)" index="1670122" value="1"/>
  <variable name="X(25,26,6026)" index="1681775" value="1"/>
  <variable name="X(25,28,6488)" index="1688940" value="1"/>
  <variable name="X(25,29,1851)" index="1691006" value="1"/>
  <variable name="X(25,117,5432)" index="1701290" value="1"/>
  <variable name="X(26,16,6026)" index="1708587" value="1"/>
  <variable name="X(26,25,1851)" index="1711115" value="1"/>
  <variable name="X(26,118,2166)" index="1718133" value="1"/>
  <variable name="X(27,48,1947)" index="1724617" value="1"/>
  <variable name="X(27,80,3264)" index="1732637" value="1"/>
  <variable name="X(27,119,6645)" index="1742721" value="1"/>
  <variable name="X(28,25,5432)" index="1748211" value="1"/>
  <variable name="X(28,48,6354)" index="1755836" value="1"/>
  <variable name="X(28,120,6488)" index="1762673" value="1"/>
  <variable name="X(29,25,6488)" index="1769376" value="1"/>
  <variable name="X(29,52,2464)" index="1772055" value="1"/>
  <variable name="X(29,121,1851)" index="1778145" value="1"/>
  <variable name="X(30,14,1262)" index="1784259" value="1"/>
  <variable name="X(30,52,6488)" index="1796188" value="1"/>
  <variable name="X(30,122,2464)" index="1798867" value="1"/>
  <variable name="X(31,19,1478)" index="1804584" value="1"/>
  <variable name="X(31,32,1400)" index="1811209" value="1"/>
  <variable name="X(31,123,6418)" index="1822930" value="1"/>
  <variable name="X(32,20,1400)" index="1824615" value="1"/>
  <variable name="X(32,31,1478)" index="1831396" value="1"/>
  <variable name="X(32,124,1477)" index="1838098" value="1"/>
  <variable name="X(33,1,6474)" index="1849798" value="1"/>
  <variable name="X(33,2,5182)" index="1855209" value="1"/>
  <variable name="X(33,125,2467)" index="1859197" value="1"/>
  <variable name="X(34,2,6474)" index="1869907" value="1"/>
  <variable name="X(34,19,2539)" index="1872675" value="1"/>
  <variable name="X(34,35,5182)" index="1882021" value="1"/>
  <variable name="X(34,126,1478)" index="1885020" value="1"/>
  <variable name="X(35,34,6474)" index="1896719" value="1"/>
  <variable name="X(35,56,108)" index="1897056" value="1"/>
  <variable name="X(35,127,5182)" index="1908833" value="1"/>
  <variable name="X(36,83,1980)" index="1912334" value="1"/>
  <variable name="X(36,84,6615)" index="1923672" value="1"/>
  <variable name="X(36,128,5803)" index="1929563" value="1"/>
  <variable name="X(37,56,4512)" index="1934975" value="1"/>
  <variable name="X(37,83,6615)" index="1943781" value="1"/>
  <variable name="X(37,92,108)" index="1943977" value="1"/>
  <variable name="X(37,129,6655)" index="1957227" value="1"/>
  <variable name="X(38,40,311)" index="1957586" value="1"/>
  <variable name="X(38,92,6615)" index="1970593" value="1"/>
  <variable name="X(38,130,108)" index="1970789" value="1"/>
  <variable name="X(39,40,6615)" index="1983999" value="1"/>
  <variable name="X(39,91,311)" index="1984398" value="1"/>
  <variable name="X(39,131,3690)" index="1994480" value="1"/>
  <variable name="X(40,38,6615)" index="2004108" value="1"/>
  <variable name="X(40,39,311)" index="2004507" value="1"/>
  <variable name="X(40,132,2753)" index="2013652" value="1"/>
  <variable name="X(41,47,3264)" index="2020866" value="1"/>
  <variable name="X(41,80,6645)" index="2030950" value="1"/>
  <variable name="X(41,133,3459)" index="2034467" value="1"/>
  <variable name="X(42,1,3030)" index="2040741" value="1"/>
  <variable name="X(42,10,6474)" index="2050888" value="1"/>
  <variable name="X(42,134,4032)" index="2055149" value="1"/>
  <variable name="X(43,44,5840)" index="2063660" value="1"/>
  <variable name="X(43,50,5432)" index="2069955" value="1"/>
  <variable name="X(43,135,5891)" index="2077117" value="1"/>
  <variable name="X(44,43,5432)" index="2083361" value="1"/>
  <variable name="X(44,75,5840)" index="2090472" value="1"/>
  <variable name="X(45,76,6690)" index="2098025" value="1"/>
  <variable name="X(45,77,5840)" index="2103878" value="1"/>
  <variable name="X(45,137,3381)" index="2108122" value="1"/>
  <variable name="X(46,51,6478)" index="2117922" value="1"/>
  <variable name="X(46,77,3381)" index="2121528" value="1"/>
  <variable name="X(46,86,3690)" index="2128540" value="1"/>
  <variable name="X(46,138,5749)" index="2137302" value="1"/>
  <variable name="X(47,22,1076)" index="2139332" value="1"/>
  <variable name="X(47,41,6645)" index="2151604" value="1"/>
  <variable name="X(47,74,2421)" index="2154083" value="1"/>
  <variable name="X(47,79,3264)" index="2161629" value="1"/>
  <variable name="X(47,139,2479)" index="2167547" value="1"/>
  <variable name="X(48,27,3264)" index="2175035" value="1"/>
  <variable name="X(48,28,5432)" index="2183906" value="1"/>
  <variable name="X(48,49,6354)" index="2191531" value="1"/>
  <variable name="X(48,140,1947)" index="2193827" value="1"/>
  <variable name="X(49,48,5432)" index="2204015" value="1"/>
  <variable name="X(49,81,3571)" index="2208857" value="1"/>
  <variable name="X(49,141,6354)" index="2218343" value="1"/>
  <variable name="X(50,43,5891)" index="2224583" value="1"/>
  <variable name="X(50,82,5432)" index="2230827" value="1"/>
  <variable name="X(50,142,5815)" index="2237913" value="1"/>
  <variable name="X(51,46,5749)" index="2244550" value="1"/>
  <variable name="X(51,78,6478)" index="2251982" value="1"/>
  <variable name="X(51,143,1262)" index="2253469" value="1"/>
  <variable name="X(52,16,2166)" index="2261076" value="1"/>
  <variable name="X(52,29,6488)" index="2272101" value="1"/>
  <variable name="X(52,30,2464)" index="2274780" value="1"/>
  <variable name="X(52,144,1181)" index="2280200" value="1"/>
  <variable name="X(53,15,4321)" index="2290043" value="1"/>
  <variable name="X(53,54,4995)" index="2297420" value="1"/>
  <variable name="X(53,145,2485)" index="2301613" value="1"/>
  <variable name="X(54,53,4321)" index="2310152" value="1"/>
  <variable name="X(54,61,4995)" index="2317529" value="1"/>
  <variable name="X(54,146,5537)" index="2324774" value="1"/>
  <variable name="X(55,58,3856)" index="2329796" value="1"/>
  <variable name="X(55,73,1076)" index="2333719" value="1"/>
  <variable name="X(55,147,5321)" index="2344667" value="1"/>
  <variable name="X(56,35,6474)" index="2352523" value="1"/>
  <variable name="X(56,37,108)" index="2352860" value="1"/>
  <variable name="X(56,148,4512)" index="2363967" value="1"/>
  <variable name="X(57,58,1076)" index="2367234" value="1"/>
  <variable name="X(57,60,3784)" index="2376645" value="1"/>
  <variable name="X(57,149,3856)" index="2383420" value="1"/>
  <variable name="X(58,55,1076)" index="2387343" value="1"/>
  <variable name="X(58,57,3856)" index="2396826" value="1"/>
  <variable name="X(58,150,4043)" index="2403716" value="1"/>
  <variable name="X(59,60,1076)" index="2407452" value="1"/>
  <variable name="X(59,62,5537)" index="2418616" value="1"/>
  <variable name="X(59,151,4362)" index="2424144" value="1"/>
  <variable name="X(60,57,1076)" index="2427561" value="1"/>
  <variable name="X(60,59,5537)" index="2438725" value="1"/>
  <variable name="X(60,152,3784)" index="2443675" value="1"/>
  <variable name="X(61,18,1076)" index="2447670" value="1"/>
  <variable name="X(61,54,5537)" index="2458834" value="1"/>
  <variable name="X(61,153,4995)" index="2464995" value="1"/>
  <variable name="X(62,18,5537)" index="2472240" value="1"/>
  <variable name="X(62,59,1076)" index="2474482" value="1"/>
  <variable name="X(62,154,4282)" index="2484391" value="1"/>
  <variable name="X(63,11,4707)" index="2491519" value="1"/>
  <variable name="X(63,66,3321)" index="2496836" value="1"/>
  <variable name="X(63,155,832)" index="2501050" value="1"/>
  <variable name="X(64,87,1296)" index="2508217" value="1"/>
  <variable name="X(64,88,3690)" index="2517314" value="1"/>
  <variable name="X(64,156,6066)" index="2526393" value="1"/>
  <variable name="X(65,13,4321)" index="2531351" value="1"/>
  <variable name="X(65,17,3321)" index="2537054" value="1"/>
  <variable name="X(65,157,1275)" index="2541711" value="1"/>
  <variable name="X(66,13,3321)" index="2550460" value="1"/>
  <variable name="X(66,63,4707)" index="2558549" value="1"/>
  <variable name="X(66,158,4599)" index="2565144" value="1"/>
  <variable name="X(67,68,4321)" index="2571569" value="1"/>
  <variable name="X(67,70,4919)" index="2578870" value="1"/>
  <variable name="X(67,159,3321)" index="2583975" value="1"/>
  <variable name="X(68,17,4321)" index="2591678" value="1"/>
  <variable name="X(68,67,3321)" index="2597381" value="1"/>
  <variable name="X(68,160,4754)" index="2605517" value="1"/>
  <variable name="X(69,70,4321)" index="2611787" value="1"/>
  <variable name="X(69,72,6687)" index="2620856" value="1"/>
  <variable name="X(69,161,4919)" index="2625791" value="1"/>
  <variable name="X(70,67,4321)" index="2631896" value="1"/>
  <variable name="X(70,69,4919)" index="2639197" value="1"/>
  <variable name="X(70,162,2339)" index="2643320" value="1"/>
  <variable name="X(71,15,5036)" index="2652720" value="1"/>
  <variable name="X(71,72,4321)" index="2658708" value="1"/>
  <variable name="X(71,163,5284)" index="2666374" value="1"/>
  <variable name="X(72,69,4321)" index="2672114" value="1"/>
  <variable name="X(72,71,5284)" index="2679780" value="1"/>
  <variable name="X(72,164,6687)" index="2687886" value="1"/>
  <variable name="X(73,55,5321)" index="2693223" value="1"/>
  <variable name="X(73,74,1076)" index="2695681" value="1"/>
  <variable name="X(73,165,5400)" index="2706708" value="1"/>
  <variable name="X(74,47,1076)" index="2709087" value="1"/>
  <variable name="X(74,73,5400)" index="2720114" value="1"/>
  <variable name="X(74,166,2421)" index="2723838" value="1"/>
  <variable name="X(75,44,5432)" index="2733552" value="1"/>
  <variable name="X(75,76,5840)" index="2740663" value="1"/>
  <variable name="X(75,167,6690)" index="2748216" value="1"/>
  <variable name="X(76,45,5840)" index="2754069" value="1"/>
  <variable name="X(76,75,6690)" index="2761622" value="1"/>
  <variable name="X(76,168,5476)" index="2767111" value="1"/>
  <variable name="X(77,45,3381)" index="2771719" value="1"/>
  <variable name="X(77,46,3690)" index="2778731" value="1"/>
  <variable name="X(77,169,5840)" index="2787584" value="1"/>
  <variable name="X(78,14,6478)" index="2794925" value="1"/>
  <variable name="X(78,51,1262)" index="2796412" value="1"/>
  <variable name="X(78,170,1045)" index="2802898" value="1"/>
  <variable name="X(79,3,3264)" index="2811820" value="1"/>
  <variable name="X(79,47,2421)" index="2817680" value="1"/>
  <variable name="X(80,27,6645)" index="2828607" value="1"/>
  <variable name="X(80,41,3264)" index="2831929" value="1"/>
  <variable name="X(80,172,3020)" index="2838388" value="1"/>
  <variable name="X(81,49,5432)" index="2847503" value="1"/>
  <variable name="X(81,82,3652)" index="2852426" value="1"/>
  <variable name="X(81,173,3571)" index="2859048" value="1"/>
  <variable name="X(82,50,5815)" index="2867995" value="1"/>
  <variable name="X(82,81,5432)" index="2874315" value="1"/>
  <variable name="X(82,174,3652)" index="2879238" value="1"/>
  <variable name="X(83,36,6615)" index="2888904" value="1"/>
  <variable name="X(83,37,4512)" index="2893504" value="1"/>
  <variable name="X(83,175,1980)" index="2897675" value="1"/>
  <variable name="X(84,23,6645)" index="2909043" value="1"/>
  <variable name="X(84,36,5803)" index="2914904" value="1"/>
  <variable name="X(84,176,6615)" index="2922419" value="1"/>
  <variable name="X(85,86,6464)" index="2928971" value="1"/>
  <variable name="X(85,87,3690)" index="2932900" value="1"/>
  <variable name="X(85,177,5770)" index="2941683" value="1"/>
  <variable name="X(86,46,6478)" index="2949094" value="1"/>
  <variable name="X(86,85,3690)" index="2953009" value="1"/>
  <variable name="X(86,178,6464)" index="2962486" value="1"/>
  <variable name="X(87,64,3690)" index="2966415" value="1"/>
  <variable name="X(87,85,6464)" index="2975892" value="1"/>
  <variable name="X(87,179,1296)" index="2977427" value="1"/>
  <variable name="X(88,64,6066)" index="2988900" value="1"/>
  <variable name="X(88,89,3690)" index="2993227" value="1"/>
  <variable name="X(89,88,6066)" index="3002306" value="1"/>
  <variable name="X(89,90,3690)" index="3006633" value="1"/>
  <variable name="X(89,181,6391)" index="3016037" value="1"/>
  <variable name="X(90,89,6066)" index="3022415" value="1"/>
  <variable name="X(90,91,3690)" index="3026742" value="1"/>
  <variable name="X(90,182,6619)" index="3036374" value="1"/>
  <variable name="X(91,39,3690)" index="3040148" value="1"/>
  <variable name="X(91,90,6066)" index="3049227" value="1"/>
  <variable name="X(91,183,311)" index="3050175" value="1"/>
  <variable name="X(92,37,6615)" index="3063182" value="1"/>
  <variable name="X(92,38,108)" index="3063378" value="1"/>
 </variables>
</CPLEXSolution>
